(declare-fun temp1346_2 () (_ BitVec 64))
(declare-fun temp1346_1 () (_ BitVec 64))
(declare-fun temp1346_3 () (_ BitVec 64))
(declare-fun var3868470 () (_ BitVec 64))
(declare-fun var4067548 () (_ BitVec 64))
(declare-fun temp1346_4 () (_ BitVec 64))
(declare-fun var4198743 () (_ BitVec 64))
(declare-fun temp1346_5 () (_ BitVec 64))
(declare-fun var4198744 () (_ BitVec 64))
(declare-fun temp1346_7 () (_ BitVec 64))
(declare-fun temp1346_6 () (_ BitVec 64))
(declare-fun temp1346_8 () (_ BitVec 64))
(declare-fun var4786202 () (_ BitVec 64))
(declare-fun temp1346_9 () (_ BitVec 64))
(declare-fun var4786207 () (_ BitVec 64))
(declare-fun temp1346_10 () (_ BitVec 64))
(declare-fun var4786209 () (_ BitVec 64))
(declare-fun temp1346_11 () (_ BitVec 64))
(declare-fun temp1346_12 () (_ BitVec 64))
(declare-fun var5376206 () (_ BitVec 64))
(declare-fun temp1346_13 () (_ BitVec 64))
(declare-fun var5376283 () (_ BitVec 64))
(declare-fun var5376204 () (_ BitVec 64))
(declare-fun var532113 () (_ BitVec 64))
(declare-fun var532115 () (_ BitVec 64))
(declare-fun var6364895 () (_ BitVec 64))
(declare-fun temp1346_15 () (_ BitVec 64))
(declare-fun temp1346_14 () (_ BitVec 64))
(assert (= temp1346_2 #x0000000000000000))
(assert (= temp1346_1 temp1346_2))
(assert (= temp1346_3 #x0000000000000000))
(assert (= var3868470 temp1346_3))
(assert (= var4067548 var3868470))
(assert (= temp1346_4 #x0000000000000000))
(assert (= var4198743 temp1346_4))
(assert (= temp1346_5 #x0000000000000000))
(assert (= var4198744 temp1346_5))
(assert (= temp1346_7 #x0000000000000000))
(assert (= temp1346_6 temp1346_7))
(assert (= temp1346_8 #x0000000000000000))
(assert (= var4786202 temp1346_8))
(assert (= temp1346_9 #x0000000000000001))
(assert (= var4786207 (bvand var4786202 temp1346_9)))
(assert (= temp1346_10 #x0000000000000000))
(assert (= var4786209
   (ite (= var4786207 temp1346_10) #x0000000000000001 #x0000000000000000)))
(assert (= temp1346_11 #x0000000000000001))
(assert (= var4786209 temp1346_11))
(assert (= temp1346_12 #x0000000000000001))
(assert (= var5376206 temp1346_12))
(assert (= temp1346_13 #x0000000000000001))
(assert (= var5376283 temp1346_13))
(assert (= var5376204 var5376283))
(assert (= var532113 var5376204))
(assert (= var532115 var532113))
(assert (= var6364895 var532115))
(assert (= temp1346_15 #x0000000000000005))
(assert (= temp1346_14 temp1346_15))
(model-add temp1346_2 () (_ BitVec 64) #x0000000000000000)
(model-add temp1346_1 () (_ BitVec 64) #x0000000000000000)
(model-add temp1346_3 () (_ BitVec 64) #x0000000000000000)
(model-add var3868470 () (_ BitVec 64) #x0000000000000000)
(model-add var4067548 () (_ BitVec 64) #x0000000000000000)
(model-add temp1346_4 () (_ BitVec 64) #x0000000000000000)
(model-add var4198743 () (_ BitVec 64) #x0000000000000000)
(model-add temp1346_5 () (_ BitVec 64) #x0000000000000000)
(model-add var4198744 () (_ BitVec 64) #x0000000000000000)
(model-add temp1346_7 () (_ BitVec 64) #x0000000000000000)
(model-add temp1346_6 () (_ BitVec 64) #x0000000000000000)
(model-add temp1346_8 () (_ BitVec 64) #x0000000000000000)
(model-add var4786202 () (_ BitVec 64) #x0000000000000000)
(model-add temp1346_9 () (_ BitVec 64) #x0000000000000001)
(model-add var4786207 () (_ BitVec 64) #x0000000000000000)
(model-add temp1346_10 () (_ BitVec 64) #x0000000000000000)
(model-add var4786209 () (_ BitVec 64) #x0000000000000001)
(model-add temp1346_11 () (_ BitVec 64) #x0000000000000001)





